p cnf 1412
-21 -441
-22 -444
-23 -447
-24 -450
-25 -453
-26 -456
-27 -459
-28 -462
-29 -465
-30 -468
-31 -471
-32 -474
-33 -477
-34 -480
-35 -483
-36 -486
-37 -489
-38 -492
-39 -495
-40 -498
-41 499
-42 500
-43 501
-44 502
-45 503
-46 504
-47 505
-48 506
-49 507
-50 508
-51 509
-52 -22
-52 -23
22 23 52
-53 -24
-53 -25
24 25 53
-54 -26
-54 -27
26 27 54
-55 -28
-55 -29
28 29 55
-56 -30
-56 -31
30 31 56
-57 -32
-57 -33
32 33 57
-58 -34
-58 -35
34 35 58
-59 -36
-59 -37
36 37 59
-60 -38
-60 -39
38 39 60
-61 -40
-61 -41
40 41 61
-62 -42
-62 -43
42 43 62
-63 -44
-63 -45
44 45 63
-64 -46
-64 -47
46 47 64
-65 -48
-65 -49
48 49 65
-66 -50
-66 -51
50 51 66
-67 52
-67 53
-52 -53 67
-68 54
-68 55
-54 -55 68
-69 56
-69 57
-56 -57 69
-70 58
-70 59
-58 -59 70
-71 60
-71 61
-60 -61 71
-72 62
-72 63
-62 -63 72
-73 64
-73 65
-64 -65 73
-74 67
-74 68
-67 -68 74
-75 69
-75 70
-69 -70 75
-76 71
-76 72
-71 -72 76
-77 66
-77 73
-66 -73 77
-78 74
-78 75
-74 -75 78
-79 76
-79 77
-76 -77 79
-80 78
-80 79
-78 -79 80
-81 -21
-81 22
21 -22 81
-82 21
-82 -22
-21 22 82
-83 -81
-83 -82
81 82 83
-84 21
-84 22
-21 -22 84
-85 -21
-85 -83
21 83 85
-86 21
-86 83
-21 -83 86
-87 -85
-87 -86
85 86 87
-88 21
-88 -83
-21 83 88
-89 -84
-89 -88
84 88 89
-90 -22
-90 23
22 -23 90
-91 22
-91 -23
-22 23 91
-92 -90
-92 -91
90 91 92
-93 22
-93 23
-22 -23 93
-94 89
-94 -92
-89 92 94
-95 -89
-95 92
89 -92 95
-96 -94
-96 -95
94 95 96
-97 -89
-97 -92
89 92 97
-98 -93
-98 -97
93 97 98
-99 -23
-99 24
23 -24 99
-100 23
-100 -24
-23 24 100
-101 -99
-101 -100
99 100 101
-102 23
-102 24
-23 -24 102
-103 98
-103 -101
-98 101 103
-104 -98
-104 101
98 -101 104
-105 -103
-105 -104
103 104 105
-106 -98
-106 -101
98 101 106
-107 -102
-107 -106
102 106 107
-108 -24
-108 25
24 -25 108
-109 24
-109 -25
-24 25 109
-110 -108
-110 -109
108 109 110
-111 24
-111 25
-24 -25 111
-112 107
-112 -110
-107 110 112
-113 -107
-113 110
107 -110 113
-114 -112
-114 -113
112 113 114
-115 -107
-115 -110
107 110 115
-116 -111
-116 -115
111 115 116
-117 -25
-117 26
25 -26 117
-118 25
-118 -26
-25 26 118
-119 -117
-119 -118
117 118 119
-120 25
-120 26
-25 -26 120
-121 116
-121 -119
-116 119 121
-122 -116
-122 119
116 -119 122
-123 -121
-123 -122
121 122 123
-124 -116
-124 -119
116 119 124
-125 -120
-125 -124
120 124 125
-126 -26
-126 27
26 -27 126
-127 26
-127 -27
-26 27 127
-128 -126
-128 -127
126 127 128
-129 26
-129 27
-26 -27 129
-130 125
-130 -128
-125 128 130
-131 -125
-131 128
125 -128 131
-132 -130
-132 -131
130 131 132
-133 -125
-133 -128
125 128 133
-134 -129
-134 -133
129 133 134
-135 -27
-135 28
27 -28 135
-136 27
-136 -28
-27 28 136
-137 -135
-137 -136
135 136 137
-138 27
-138 28
-27 -28 138
-139 134
-139 -137
-134 137 139
-140 -134
-140 137
134 -137 140
-141 -139
-141 -140
139 140 141
-142 -134
-142 -137
134 137 142
-143 -138
-143 -142
138 142 143
-144 -28
-144 29
28 -29 144
-145 28
-145 -29
-28 29 145
-146 -144
-146 -145
144 145 146
-147 28
-147 29
-28 -29 147
-148 143
-148 -146
-143 146 148
-149 -143
-149 146
143 -146 149
-150 -148
-150 -149
148 149 150
-151 -143
-151 -146
143 146 151
-152 -147
-152 -151
147 151 152
-153 -29
-153 30
29 -30 153
-154 29
-154 -30
-29 30 154
-155 -153
-155 -154
153 154 155
-156 29
-156 30
-29 -30 156
-157 152
-157 -155
-152 155 157
-158 -152
-158 155
152 -155 158
-159 -157
-159 -158
157 158 159
-160 -152
-160 -155
152 155 160
-161 -156
-161 -160
156 160 161
-162 -30
-162 31
30 -31 162
-163 30
-163 -31
-30 31 163
-164 -162
-164 -163
162 163 164
-165 30
-165 31
-30 -31 165
-166 161
-166 -164
-161 164 166
-167 -161
-167 164
161 -164 167
-168 -166
-168 -167
166 167 168
-169 -161
-169 -164
161 164 169
-170 -165
-170 -169
165 169 170
-171 -31
-171 32
31 -32 171
-172 31
-172 -32
-31 32 172
-173 -171
-173 -172
171 172 173
-174 31
-174 32
-31 -32 174
-175 170
-175 -173
-170 173 175
-176 -170
-176 173
170 -173 176
-177 -175
-177 -176
175 176 177
-178 -170
-178 -173
170 173 178
-179 -174
-179 -178
174 178 179
-180 -32
-180 33
32 -33 180
-181 32
-181 -33
-32 33 181
-182 -180
-182 -181
180 181 182
-183 32
-183 33
-32 -33 183
-184 179
-184 -182
-179 182 184
-185 -179
-185 182
179 -182 185
-186 -184
-186 -185
184 185 186
-187 -179
-187 -182
179 182 187
-188 -183
-188 -187
183 187 188
-189 -33
-189 34
33 -34 189
-190 33
-190 -34
-33 34 190
-191 -189
-191 -190
189 190 191
-192 33
-192 34
-33 -34 192
-193 188
-193 -191
-188 191 193
-194 -188
-194 191
188 -191 194
-195 -193
-195 -194
193 194 195
-196 -188
-196 -191
188 191 196
-197 -192
-197 -196
192 196 197
-198 -34
-198 35
34 -35 198
-199 34
-199 -35
-34 35 199
-200 -198
-200 -199
198 199 200
-201 34
-201 35
-34 -35 201
-202 197
-202 -200
-197 200 202
-203 -197
-203 200
197 -200 203
-204 -202
-204 -203
202 203 204
-205 -197
-205 -200
197 200 205
-206 -201
-206 -205
201 205 206
-207 -35
-207 36
35 -36 207
-208 35
-208 -36
-35 36 208
-209 -207
-209 -208
207 208 209
-210 35
-210 36
-35 -36 210
-211 206
-211 -209
-206 209 211
-212 -206
-212 209
206 -209 212
-213 -211
-213 -212
211 212 213
-214 -206
-214 -209
206 209 214
-215 -210
-215 -214
210 214 215
-216 -36
-216 37
36 -37 216
-217 36
-217 -37
-36 37 217
-218 -216
-218 -217
216 217 218
-219 36
-219 37
-36 -37 219
-220 215
-220 -218
-215 218 220
-221 -215
-221 218
215 -218 221
-222 -220
-222 -221
220 221 222
-223 -215
-223 -218
215 218 223
-224 -219
-224 -223
219 223 224
-225 -37
-225 38
37 -38 225
-226 37
-226 -38
-37 38 226
-227 -225
-227 -226
225 226 227
-228 37
-228 38
-37 -38 228
-229 224
-229 -227
-224 227 229
-230 -224
-230 227
224 -227 230
-231 -229
-231 -230
229 230 231
-232 -224
-232 -227
224 227 232
-233 -228
-233 -232
228 232 233
-234 -38
-234 39
38 -39 234
-235 38
-235 -39
-38 39 235
-236 -234
-236 -235
234 235 236
-237 38
-237 39
-38 -39 237
-238 233
-238 -236
-233 236 238
-239 -233
-239 236
233 -236 239
-240 -238
-240 -239
238 239 240
-241 -233
-241 -236
233 236 241
-242 -237
-242 -241
237 241 242
-243 -39
-243 40
39 -40 243
-244 39
-244 -40
-39 40 244
-245 -243
-245 -244
243 244 245
-246 39
-246 40
-39 -40 246
-247 242
-247 -245
-242 245 247
-248 -242
-248 245
242 -245 248
-249 -247
-249 -248
247 248 249
-250 -242
-250 -245
242 245 250
-251 -246
-251 -250
246 250 251
-252 -40
-252 41
40 -41 252
-253 40
-253 -41
-40 41 253
-254 -252
-254 -253
252 253 254
-255 40
-255 41
-40 -41 255
-256 251
-256 -254
-251 254 256
-257 -251
-257 254
251 -254 257
-258 -256
-258 -257
256 257 258
-259 -251
-259 -254
251 254 259
-260 -255
-260 -259
255 259 260
-261 -41
-261 42
41 -42 261
-262 41
-262 -42
-41 42 262
-263 -261
-263 -262
261 262 263
-264 41
-264 42
-41 -42 264
-265 260
-265 -263
-260 263 265
-266 -260
-266 263
260 -263 266
-267 -265
-267 -266
265 266 267
-268 -260
-268 -263
260 263 268
-269 -264
-269 -268
264 268 269
-270 -42
-270 43
42 -43 270
-271 42
-271 -43
-42 43 271
-272 -270
-272 -271
270 271 272
-273 42
-273 43
-42 -43 273
-274 269
-274 -272
-269 272 274
-275 -269
-275 272
269 -272 275
-276 -274
-276 -275
274 275 276
-277 -269
-277 -272
269 272 277
-278 -273
-278 -277
273 277 278
-279 -43
-279 44
43 -44 279
-280 43
-280 -44
-43 44 280
-281 -279
-281 -280
279 280 281
-282 43
-282 44
-43 -44 282
-283 278
-283 -281
-278 281 283
-284 -278
-284 281
278 -281 284
-285 -283
-285 -284
283 284 285
-286 -278
-286 -281
278 281 286
-287 -282
-287 -286
282 286 287
-288 -44
-288 45
44 -45 288
-289 44
-289 -45
-44 45 289
-290 -288
-290 -289
288 289 290
-291 44
-291 45
-44 -45 291
-292 287
-292 -290
-287 290 292
-293 -287
-293 290
287 -290 293
-294 -292
-294 -293
292 293 294
-295 -287
-295 -290
287 290 295
-296 -291
-296 -295
291 295 296
-297 -45
-297 46
45 -46 297
-298 45
-298 -46
-45 46 298
-299 -297
-299 -298
297 298 299
-300 45
-300 46
-45 -46 300
-301 296
-301 -299
-296 299 301
-302 -296
-302 299
296 -299 302
-303 -301
-303 -302
301 302 303
-304 -296
-304 -299
296 299 304
-305 -300
-305 -304
300 304 305
-306 -46
-306 47
46 -47 306
-307 46
-307 -47
-46 47 307
-308 -306
-308 -307
306 307 308
-309 46
-309 47
-46 -47 309
-310 305
-310 -308
-305 308 310
-311 -305
-311 308
305 -308 311
-312 -310
-312 -311
310 311 312
-313 -305
-313 -308
305 308 313
-314 -309
-314 -313
309 313 314
-315 -47
-315 48
47 -48 315
-316 47
-316 -48
-47 48 316
-317 -315
-317 -316
315 316 317
-318 47
-318 48
-47 -48 318
-319 314
-319 -317
-314 317 319
-320 -314
-320 317
314 -317 320
-321 -319
-321 -320
319 320 321
-322 -314
-322 -317
314 317 322
-323 -318
-323 -322
318 322 323
-324 -48
-324 49
48 -49 324
-325 48
-325 -49
-48 49 325
-326 -324
-326 -325
324 325 326
-327 48
-327 49
-48 -49 327
-328 323
-328 -326
-323 326 328
-329 -323
-329 326
323 -326 329
-330 -328
-330 -329
328 329 330
-331 -323
-331 -326
323 326 331
-332 -327
-332 -331
327 331 332
-333 -49
-333 50
49 -50 333
-334 49
-334 -50
-49 50 334
-335 -333
-335 -334
333 334 335
-336 49
-336 50
-49 -50 336
-337 332
-337 -335
-332 335 337
-338 -332
-338 335
332 -335 338
-339 -337
-339 -338
337 338 339
-340 -332
-340 -335
332 335 340
-341 -336
-341 -340
336 340 341
-342 -50
-342 51
50 -51 342
-343 50
-343 -51
-50 51 343
-344 -342
-344 -343
342 343 344
-345 50
-345 51
-50 -51 345
-346 341
-346 -344
-341 344 346
-347 -341
-347 344
341 -344 347
-348 -346
-348 -347
346 347 348
-349 -341
-349 -344
341 344 349
-350 -345
-350 -349
345 349 350
-351 21
-351 -87
-21 87 351
-352 -21
-352 23
21 -23 352
-353 -351
-353 -352
351 352 353
-354 21
-354 -96
-21 96 354
-355 -21
-355 24
21 -24 355
-356 -354
-356 -355
354 355 356
-357 21
-357 -105
-21 105 357
-358 -21
-358 25
21 -25 358
-359 -357
-359 -358
357 358 359
-360 21
-360 -114
-21 114 360
-361 -21
-361 26
21 -26 361
-362 -360
-362 -361
360 361 362
-363 21
-363 -123
-21 123 363
-364 -21
-364 27
21 -27 364
-365 -363
-365 -364
363 364 365
-366 21
-366 -132
-21 132 366
-367 -21
-367 28
21 -28 367
-368 -366
-368 -367
366 367 368
-369 21
-369 -141
-21 141 369
-370 -21
-370 29
21 -29 370
-371 -369
-371 -370
369 370 371
-372 21
-372 -150
-21 150 372
-373 -21
-373 30
21 -30 373
-374 -372
-374 -373
372 373 374
-375 21
-375 -159
-21 159 375
-376 -21
-376 31
21 -31 376
-377 -375
-377 -376
375 376 377
-378 21
-378 -168
-21 168 378
-379 -21
-379 32
21 -32 379
-380 -378
-380 -379
378 379 380
-381 21
-381 -177
-21 177 381
-382 -21
-382 33
21 -33 382
-383 -381
-383 -382
381 382 383
-384 21
-384 -186
-21 186 384
-385 -21
-385 34
21 -34 385
-386 -384
-386 -385
384 385 386
-387 21
-387 -195
-21 195 387
-388 -21
-388 35
21 -35 388
-389 -387
-389 -388
387 388 389
-390 21
-390 -204
-21 204 390
-391 -21
-391 36
21 -36 391
-392 -390
-392 -391
390 391 392
-393 21
-393 -213
-21 213 393
-394 -21
-394 37
21 -37 394
-395 -393
-395 -394
393 394 395
-396 21
-396 -222
-21 222 396
-397 -21
-397 38
21 -38 397
-398 -396
-398 -397
396 397 398
-399 21
-399 -231
-21 231 399
-400 -21
-400 39
21 -39 400
-401 -399
-401 -400
399 400 401
-402 21
-402 -240
-21 240 402
-403 -21
-403 40
21 -40 403
-404 -402
-404 -403
402 403 404
-405 21
-405 -249
-21 249 405
-406 -21
-406 41
21 -41 406
-407 -405
-407 -406
405 406 407
-408 21
-408 -258
-21 258 408
-409 -21
-409 42
21 -42 409
-410 -408
-410 -409
408 409 410
-411 21
-411 -267
-21 267 411
-412 -21
-412 43
21 -43 412
-413 -411
-413 -412
411 412 413
-414 21
-414 -276
-21 276 414
-415 -21
-415 44
21 -44 415
-416 -414
-416 -415
414 415 416
-417 21
-417 -285
-21 285 417
-418 -21
-418 45
21 -45 418
-419 -417
-419 -418
417 418 419
-420 21
-420 -294
-21 294 420
-421 -21
-421 46
21 -46 421
-422 -420
-422 -421
420 421 422
-423 21
-423 -303
-21 303 423
-424 -21
-424 47
21 -47 424
-425 -423
-425 -424
423 424 425
-426 21
-426 -312
-21 312 426
-427 -21
-427 48
21 -48 427
-428 -426
-428 -427
426 427 428
-429 21
-429 -321
-21 321 429
-430 -21
-430 49
21 -49 430
-431 -429
-431 -430
429 430 431
-432 21
-432 -330
-21 330 432
-433 -21
-433 50
21 -50 433
-434 -432
-434 -433
432 433 434
-435 21
-435 -339
-21 339 435
-436 -21
-436 51
21 -51 436
-437 -435
-437 -436
435 436 437
-438 21
-438 -348
-21 348 438
-439 1
-439 80
-1 -80 439
-440 -80
-440 81
80 -81 440
-441 -439
-441 -440
439 440 441
-442 2
-442 80
-2 -80 442
-443 -80
-443 -353
80 353 443
-444 -442
-444 -443
442 443 444
-445 3
-445 80
-3 -80 445
-446 -80
-446 -356
80 356 446
-447 -445
-447 -446
445 446 447
-448 4
-448 80
-4 -80 448
-449 -80
-449 -359
80 359 449
-450 -448
-450 -449
448 449 450
-451 5
-451 80
-5 -80 451
-452 -80
-452 -362
80 362 452
-453 -451
-453 -452
451 452 453
-454 6
-454 80
-6 -80 454
-455 -80
-455 -365
80 365 455
-456 -454
-456 -455
454 455 456
-457 7
-457 80
-7 -80 457
-458 -80
-458 -368
80 368 458
-459 -457
-459 -458
457 458 459
-460 8
-460 80
-8 -80 460
-461 -80
-461 -371
80 371 461
-462 -460
-462 -461
460 461 462
-463 9
-463 80
-9 -80 463
-464 -80
-464 -374
80 374 464
-465 -463
-465 -464
463 464 465
-466 10
-466 80
-10 -80 466
-467 -80
-467 -377
80 377 467
-468 -466
-468 -467
466 467 468
-469 11
-469 80
-11 -80 469
-470 -80
-470 -380
80 380 470
-471 -469
-471 -470
469 470 471
-472 12
-472 80
-12 -80 472
-473 -80
-473 -383
80 383 473
-474 -472
-474 -473
472 473 474
-475 13
-475 80
-13 -80 475
-476 -80
-476 -386
80 386 476
-477 -475
-477 -476
475 476 477
-478 14
-478 80
-14 -80 478
-479 -80
-479 -389
80 389 479
-480 -478
-480 -479
478 479 480
-481 15
-481 80
-15 -80 481
-482 -80
-482 -392
80 392 482
-483 -481
-483 -482
481 482 483
-484 16
-484 80
-16 -80 484
-485 -80
-485 -395
80 395 485
-486 -484
-486 -485
484 485 486
-487 17
-487 80
-17 -80 487
-488 -80
-488 -398
80 398 488
-489 -487
-489 -488
487 488 489
-490 18
-490 80
-18 -80 490
-491 -80
-491 -401
80 401 491
-492 -490
-492 -491
490 491 492
-493 19
-493 80
-19 -80 493
-494 -80
-494 -404
80 404 494
-495 -493
-495 -494
493 494 495
-496 20
-496 80
-20 -80 496
-497 -80
-497 -407
80 407 497
-498 -496
-498 -497
496 497 498
-499 -80
-499 -410
80 410 499
-500 -80
-500 -413
80 413 500
-501 -80
-501 -416
80 416 501
-502 -80
-502 -419
80 419 502
-503 -80
-503 -422
80 422 503
-504 -80
-504 -425
80 425 504
-505 -80
-505 -428
80 428 505
-506 -80
-506 -431
80 431 506
-507 -80
-507 -434
80 434 507
-508 -80
-508 -437
80 437 508
-509 -80
-509 438
80 -438 509
-510 -51
-510 350
51 -350 510
-511 21
-511 -510
-21 510 511
511
